1917505
0,31,19,225,112,92,46,44,102,186,185,170,149,145,11,152,179,135,85,72,41,176,7,57,58,51,222,226,75,109,205,68,217,198,15,182,54,129,61,111,154,228,77,34,93,88,16,12,193,138,181,208,159,190,207,59,209,39,26,80,204,74,33,165,95,106,8,216,67,21,90,100,150,168,227,108,87,89,3,32,223,229,167,121,175,219,143,25,49,27,214,36,191,144,29,64,9,37,202,128,169,141,20,5,43,160,183,115,107,70,177,206,71,62,132,161,139,156,30,157,221,189,201,104,98,76,65,55,17,53,52,91,99,174,215,23,120,40,127,105,140,218,83,124,153,125,158,2,137,119,18,211,171,212,1,81,79,192,194,113,103,203,200,188,172,166,164,163,148,147,123,122,118,94,84,78,56,28,199,197,196,24,45,60,114,131,187,142,213,173,35,101,178,195,86,6,48,134,82,126,146,130,22,184,13,96,47,133,224,110,210,63,14,136,151,50,97,180,10,42,38,66,73,117,162,69,220,4,155,116,0